Please solve the following SAT Problem encoded in DIMACS format, provide line of thoughts, write your final answer as a single solution at the end of response with header 'answer: ' : 
p cnf 5 14
-2 5 3 0
-4 3 -5 0
2 5 -1 0
-1 -4 -5 0
-4 -3 1 0
-1 -2 -3 0
5 -1 -3 0
-2 -1 3 0
-4 5 -3 0
-1 -2 -4 0
-2 -1 -4 0
-1 -4 -5 0
-3 -1 4 0
-4 -3 -1 0

